NAME : ct_7_n_4_k10_t_60
COMMENT : (ct_7_n_4_k10_t_60, Min no of trucks: 4, Optimal value: 741.419269387235, Split: No)
TYPE : SDVRP
DIMENSION : 8
EDGE_WEIGHT_TYPE : EUC_2D
CAPACITY : 10
NODE_COORD_SECTION
1 100 100
2 89 5
3 10 48
4 74 167
5 170 91
6 130 128
7 104 173
8 46 13
DEMAND_SECTION
1 0
2 3.4
3 4.2
4 2.6
5 2.3
6 3.1
7 4.6
8 3.9
DEPOT_SECTION
 1
EOF